certificates/rado_a13_c74_N36.drat
-32 -36 0
d -32 -6 -36 0
8 6 -34 0
6 -33 -34 0
-6 -36 0
-34 -35 -36 0
-8 -35 -36 0
-4 -36 0
-36 0
6 -8 0
-8 0
6 0
-2 0
-10 0
32 0
-28 0
7 12 0
-34 0
4 0
-26 0
-7 0
19 0
24 0
25 0
9 0
27 0
11 0
17 0
12 0
-23 0
-15 0
-20 0
-29 0
-3 0
-21 0
-13 0
-5 0
-31 0
-33 0
-16 0
0
